# Solution for model GasLib-40
# Objective value = 4.8502808870692107e+01
loadshed[innode_1] 0
loadshed[innode_2] 0
loadshed[innode_3] 0
loadshed[innode_4] 0
loadshed[innode_5] 0
loadshed[innode_6] 0
loadshed[innode_7] 0
loadshed[innode_8] 0
loadshed[source_1] -1.3865176146694513e-01
loadshed[source_2] 2.1465796358305622e-01
loadshed[source_3] 2.3079829941591257e-01
loadshed[sink_1] 8.1244250045811151e-02
loadshed[sink_2] 0
loadshed[sink_3] 0
loadshed[sink_4] 0
loadshed[sink_5] 0
loadshed[sink_6] 0
loadshed[sink_7] 0
loadshed[sink_8] 0
loadshed[sink_9] 0
loadshed[sink_10] 0
loadshed[sink_11] 0
loadshed[sink_12] 1
loadshed[sink_13] 0
loadshed[sink_14] 0
loadshed[sink_15] 0
loadshed[sink_16] 0
loadshed[sink_17] 0
loadshed[sink_18] 0
loadshed[sink_19] 0
loadshed[sink_20] 0
loadshed[sink_21] 1
loadshed[sink_22] 0
loadshed[sink_23] 0
loadshed[sink_24] 8.8453259809841933e-01
loadshed[sink_25] 0
loadshed[sink_26] 0
loadshed[sink_27] 0
loadshed[sink_28] 0
loadshed[sink_29] 0
flow[source_1,sink_3] 1.8000977326246533e+02
flow[innode_1,sink_16] 1.6354166666666970e+01
flow[innode_6,sink_13] -7.1241438458110267e+00
flow[sink_13,sink_14] -2.3478310512477695e+01
flow[sink_14,sink_10] -3.9832477179144362e+01
flow[sink_25,sink_26] 0
flow[sink_26,sink_9] 6.6635550084118137e+01
flow[sink_9,sink_18] 5.0281383417451465e+01
flow[sink_26,sink_4] -8.2989716750784822e+01
flow[sink_4,sink_20] -1.0303100503929905e+02
flow[sink_18,sink_6] 3.3927216750784794e+01
flow[sink_25,innode_8] -1.4730143992912895e+02
flow[sink_6,sink_7] -1.3806601243257660e+01
flow[sink_6,sink_22] 31.3796513273758
flow[sink_7,sink_24] 1.8883731352654354e+00
flow[sink_22,sink_1] 1.5025484660709132e+01
flow[sink_24,sink_21] 0
flow[sink_21,sink_12] 0
flow[sink_7,sink_5] -3.2049141045189764e+01
flow[sink_5,sink_17] -4.8403307711856428e+01
flow[sink_17,sink_4] -3.6871216218475809e+00
flow[sink_17,sink_8] -6.1070352756675526e+01
flow[sink_3,sink_23] 16.3541666666697
flow[sink_8,sink_20] -7.7424519423342190e+01
flow[sink_25,sink_20] 1.9680969112930794e+02
flow[sink_25,sink_15] -5.8738274021035366e+01
flow[sink_15,sink_29] -9.1446607354386288e+01
flow[sink_29,sink_28] 1.6354166666667879e+01
flow[sink_29,sink_2] 0
flow[sink_2,sink_15] -1.6354166666684250e+01
flow[sink_29,innode_7] -1.2415494068772031e+02
flow[innode_4,sink_19] 4.7238507021857984e+01
flow[sink_19,innode_3] 4.3380373637927917e+01
flow[innode_4,innode_5] 7.4364803490619451e+01
flow[sink_27,innode_5] -7.4364803490619451e+01
flow[sink_27,sink_19] 5.8010636823952780e+01
flow[sink_10,sink_11] 3.2708333333333641e+01
flow[sink_10,innode_2] -4.5514603541216751e+01
flow[sink_10,innode_3] -4.3380373637927917e+01
flow[innode_6,sink_25] 7.1241438458110267e+00
flow[sink_11,innode_1] 1.6354166666666970e+01
flow[sink_19,innode_2] 4.5514603541216751e+01
flow[source_3,innode_4] 1.2160331051247744e+02
flow[source_2,innode_7] 1.2415494068772031e+02
flow[sink_3,innode_8] 1.4730143992912895e+02
pressure[innode_1] 7.6542161629916535e+01
pressure[innode_2] 7.9099497716142622e+01
pressure[innode_3] 7.9003436791015858e+01
pressure[innode_4] 81.01325
pressure[innode_5] 8.0962097966890923e+01
pressure[innode_6] 7.4728552046521173e+01
pressure[innode_7] 81.01325
pressure[innode_8] 8.0411546094209470e+01
pressure[source_1] 81.01325
pressure[source_2] 81.01325
pressure[source_3] 81.01325
pressure[sink_1] 1.0132500000000002e+00
pressure[sink_2] 7.4960097161613490e+01
pressure[sink_3] 8.0411546094209470e+01
pressure[sink_4] 2.0250889856929319e+01
pressure[sink_5] 1.6504283671073889e+01
pressure[sink_6] 2.9857648099191088e+00
pressure[sink_7] 3.1752965350326376e+00
pressure[sink_8] 2.2414323292834442e+01
pressure[sink_9] 5.7110528281040835e+00
pressure[sink_10] 7.6693862937520080e+01
pressure[sink_11] 7.6542161629916535e+01
pressure[sink_12] 1.01325
pressure[sink_13] 7.4767826260988087e+01
pressure[sink_14] 7.4809842697560015e+01
pressure[sink_15] 7.5013489911379935e+01
pressure[sink_16] 7.5520511795098855e+01
pressure[sink_17] 2.0109980226450034e+01
pressure[sink_18] 3.8917225117643337e+00
pressure[sink_19] 7.9099497716142622e+01
pressure[sink_20] 2.7809723454639474e+01
pressure[sink_21] 1.01325
pressure[sink_22] 1.9905940161624838e+00
pressure[sink_23] 8.0246828082549683e+01
pressure[sink_24] 1.01325
pressure[sink_25] 7.4728552046521173e+01
pressure[sink_26] 9.6993624822591240e+00
pressure[sink_27] 80.3450075093006
pressure[sink_28] 7.7397309439407650e+01
pressure[sink_29] 7.7692591713024825e+01
interdiction[source_1,sink_3] 0
interdiction[innode_1,sink_16] 0
interdiction[innode_6,sink_13] 0
interdiction[sink_13,sink_14] 0
interdiction[sink_14,sink_10] 0
interdiction[sink_25,sink_26] 1
interdiction[sink_26,sink_9] 0
interdiction[sink_9,sink_18] 0
interdiction[sink_26,sink_4] 0
interdiction[sink_4,sink_20] 0
interdiction[sink_18,sink_6] 0
interdiction[sink_25,innode_8] 0
interdiction[sink_6,sink_7] 0
interdiction[sink_6,sink_22] 0
interdiction[sink_7,sink_24] 0
interdiction[sink_22,sink_1] 0
interdiction[sink_24,sink_21] 0
interdiction[sink_21,sink_12] 0
interdiction[sink_7,sink_5] 0
interdiction[sink_5,sink_17] 0
interdiction[sink_17,sink_4] 0
interdiction[sink_17,sink_8] 0
interdiction[sink_3,sink_23] 0
interdiction[sink_8,sink_20] 0
interdiction[sink_25,sink_20] 0
interdiction[sink_25,sink_15] 0
interdiction[sink_15,sink_29] 0
interdiction[sink_29,sink_28] 0
interdiction[sink_29,sink_2] 1
interdiction[sink_2,sink_15] 0
interdiction[sink_29,innode_7] 0
interdiction[innode_4,sink_19] 0
interdiction[sink_19,innode_3] 0
interdiction[innode_4,innode_5] 0
interdiction[sink_27,innode_5] 0
interdiction[sink_27,sink_19] 0
interdiction[sink_10,sink_11] 0
interdiction[sink_10,innode_2] 0
interdiction[sink_10,innode_3] 0
interdiction[innode_6,sink_25] 0
interdiction[sink_11,innode_1] 0
interdiction[sink_19,innode_2] 0
interdiction[source_3,innode_4] 0
interdiction[source_2,innode_7] 0
interdiction[sink_3,innode_8] 0
WCcheckFlow[source_1,sink_3] 39
WCcheckFlow[innode_1,sink_16] 1
WCcheckFlow[innode_6,sink_13] 13
WCcheckFlow[sink_13,sink_14] 12
WCcheckFlow[sink_14,sink_10] 11
WCcheckFlow[sink_25,sink_26] 0
WCcheckFlow[sink_26,sink_9] 12
WCcheckFlow[sink_9,sink_18] 11
WCcheckFlow[sink_26,sink_4] -13
WCcheckFlow[sink_4,sink_20] -14
WCcheckFlow[sink_18,sink_6] 10
WCcheckFlow[sink_25,innode_8] -36
WCcheckFlow[sink_6,sink_7] 7
WCcheckFlow[sink_6,sink_22] 2
WCcheckFlow[sink_7,sink_24] 3
WCcheckFlow[sink_22,sink_1] 1
WCcheckFlow[sink_24,sink_21] 2
WCcheckFlow[sink_21,sink_12] 1
WCcheckFlow[sink_7,sink_5] 3
WCcheckFlow[sink_5,sink_17] 2
WCcheckFlow[sink_17,sink_4] 0
WCcheckFlow[sink_17,sink_8] 1
WCcheckFlow[sink_3,sink_23] 1
WCcheckFlow[sink_8,sink_20] 0
WCcheckFlow[sink_25,sink_20] 15
WCcheckFlow[sink_25,sink_15] 6
WCcheckFlow[sink_15,sink_29] 4
WCcheckFlow[sink_29,sink_28] 1
WCcheckFlow[sink_29,sink_2] 0
WCcheckFlow[sink_2,sink_15] -1
WCcheckFlow[sink_29,innode_7] 2
WCcheckFlow[innode_4,sink_19] -4
WCcheckFlow[sink_19,innode_3] -5
WCcheckFlow[innode_4,innode_5] 2
WCcheckFlow[sink_27,innode_5] -1
WCcheckFlow[sink_27,sink_19] 0
WCcheckFlow[sink_10,sink_11] 3
WCcheckFlow[sink_10,innode_2] 1
WCcheckFlow[sink_10,innode_3] 6
WCcheckFlow[innode_6,sink_25] -14
WCcheckFlow[sink_11,innode_1] 2
WCcheckFlow[sink_19,innode_2] 0
WCcheckFlow[source_3,innode_4] -1
WCcheckFlow[source_2,innode_7] -1
WCcheckFlow[sink_3,innode_8] 37
